1 82144.6
2 77962.8
3 68913.7
4 68913.7
5 68913.7
6 60956.1
7 60956.1
8 60956.1
9 59935
10 59935
11 54929.8
12 54320
13 54320
14 54320
15 54320
16 53767.5
17 53767.5
18 53767.5
19 53767.5
20 52318.3
21 52318.3
22 52318.3
23 52318.3
24 52318.3
25 52318.3
26 48185.6
27 48185.6
28 48185.6
29 48185.6
30 48185.6
31 48065.8
32 48065.8
33 45978.7
34 45978.7
35 45536.6
36 45536.6
37 43927
38 43927
39 43927
40 43927
41 43927
42 43330
43 43330
44 43330
45 43330
46 42422.9
47 41859.4
48 40904.4
49 38597.4
50 38597.4
51 38597.4
52 38597.4
53 38597.4
54 38597.4
55 37440.2
56 37440.2
57 37440.2
58 37393.1
59 37393.1
60 37393.1
61 37393.1
62 35423.4
63 35423.4
64 35423.4
65 35423.4
66 35423.4
67 35423.4
68 35423.4
69 35423.4
70 35423.4
71 35423.4
72 35423.4
73 35338
74 35338
75 35338
76 35207
77 35207
78 35207
79 34493.6
80 34493.6
81 34493.6
82 34493.6
83 34493.6
84 34467.7
85 34467.7
86 34269.5
87 34165.1
88 34094.1
89 34094.1
90 33474
91 33474
92 33474
93 33097.7
94 33097.7
95 33097.7
96 33097.7
97 33097.7
98 33097.7
99 33097.7
100 33097.7
101 33060.7
102 32697.6
103 32697.6
104 32697.6
105 32697.6
106 32697.6
107 32697.6
108 32697.6
109 32697.6
110 32697.6
111 32697.6
112 32697.6
113 32697.6
114 32697.6
115 32697.6
116 32697.6
117 32697.6
118 32697.6
119 32697.6
120 32697.6
121 32697.6
122 32697.6
123 32697.6
124 32697.6
125 32697.6
126 32697.6
127 32697.6
128 32697.6
129 32697.6
130 32697.6
131 32697.6
132 32697.6
133 31871.4
134 31871.4
135 31871.4
136 31871.4
137 31871.4
138 31394.1
139 31394.1
140 31394.1
141 31394.1
142 31394.1
143 31394.1
144 30127.2
145 30127.2
146 29991.6
147 29794.7
148 29794.7
149 29794.7
150 29794.7
151 29794.6
152 29794.6
153 29794.6
154 29794.6
155 29794.6
156 29794.6
157 29794.6
158 29794.6
159 29794.6
160 29794.6
161 29794.6
162 29794.6
163 29794.6
164 29794.6
165 29794.6
166 29794.6
167 29794.6
168 29794.6
169 29794.6
170 29794.6
171 29794.6
172 29794.6
173 29794.6
174 29794.6
175 29794.6
176 29794.6
177 29794.6
178 29794.6
179 28902.9
180 28902.9
181 28705.9
182 28705.9
183 28705.9
184 28705.9
185 28705.9
186 28705.9
187 28705.9
188 28705.9
189 28705.9
190 28705.9
191 28705.9
192 28705.9
193 28705.9
194 28705.9
195 28705.9
196 28705.9
197 28705.9
198 28705.9
199 28705.9
200 28705.9
201 28705.9
202 28705.9
203 28705.9
204 28705.9
205 28705.9
206 28705.9
207 28705.9
208 28705.9
209 28705.9
210 28705.9
211 28705.9
212 28705.9
213 28705.9
214 28705.9
215 28705.9
216 28705.9
217 28705.9
218 28705.9
219 28705.9
220 28705.9
221 28705.9
222 28705.9
223 28705.9
224 28705.9
225 28705.9
226 28705.9
227 28705.9
228 28705.9
229 28705.9
230 28705.9
231 28705.9
232 28705.9
233 28705.9
234 28705.9
235 28589.5
236 28589.5
237 28589.5
238 28589.5
239 28532.4
240 28532.4
241 28532.4
242 28532.4
243 28532.4
244 28532.4
245 28532.4
246 28532.4
247 28532.4
248 28532.4
249 28532.4
250 28532.4
251 28532.4
252 28532.4
253 28532.4
254 28532.4
255 28532.4
256 28532.4
257 28532.4
258 28532.4
259 28532.4
260 28532.4
261 28532.4
262 28532.4
263 28532.4
264 28532.4
265 28532.4
266 28532.4
267 28532.4
268 28532.4
269 28532.4
270 28532.4
271 28532.4
272 28532.4
273 28532.4
274 28532.4
275 28532.4
276 28532.4
277 28532.4
278 28532.4
279 28532.4
280 28532.4
281 28532.4
282 28532.4
283 28532.4
284 28532.4
285 28532.4
286 28532.4
287 28532.4
288 28532.4
289 28532.4
290 28532.4
291 28532.4
292 28532.4
293 28532.4
294 28532.4
295 28532.4
296 28180.4
297 28180.4
298 28180.4
299 28180.4
300 28180.4
301 28180.4
302 28180.4
303 28180.4
304 28180.4
305 28042.2
306 28042.2
307 28042.2
308 28042.2
309 28042.2
310 28042.2
311 28042.2
312 28042.2
313 28042.2
314 28042.2
315 28042.2
316 28042.2
317 28042.2
318 28042.2
319 28042.2
320 28042.2
321 28042.2
322 28042.2
323 28042.2
324 28042.2
325 28042.2
326 28042.2
327 28042.2
328 28042.2
329 28042.2
330 28042.2
331 28042.2
332 28042.2
333 28042.2
334 28042.2
335 28042.2
336 28042.2
337 28042.2
338 28042.2
339 28042.2
340 28042.2
341 28042.2
342 28042.2
343 28042.2
344 28042.2
345 28042.2
346 28042.2
347 28042.2
348 28042.2
349 28042.2
350 28042.2
351 28042.2
352 28042.2
353 28042.2
354 28042.2
355 